p tw 182 9101 93 
1 102 
1 111 
1 120 
1 129 
1 138 
1 147 
1 156 
1 165 
1 174 
2 96 
2 105 
2 114 
2 123 
2 132 
2 141 
2 150 
2 159 
2 168 
2 174 
3 99 
3 108 
3 117 
3 126 
3 135 
3 144 
3 153 
3 162 
3 171 
3 174 
4 94 
4 103 
4 112 
4 121 
4 130 
4 139 
4 148 
4 157 
4 166 
4 174 
5 97 
5 106 
5 115 
5 124 
5 133 
5 142 
5 151 
5 160 
5 169 
5 174 
6 98 
6 107 
6 116 
6 125 
6 134 
6 143 
6 152 
6 161 
6 170 
6 174 
7 95 
7 104 
7 113 
7 122 
7 131 
7 140 
7 149 
7 158 
7 167 
7 174 
8 101 
8 110 
8 119 
8 128 
8 137 
8 146 
8 155 
8 164 
8 173 
8 174 
9 100 
9 109 
9 118 
9 127 
9 136 
9 145 
9 154 
9 163 
9 172 
9 174 
10 93 
10 104 
10 112 
10 126 
10 137 
10 145 
10 150 
10 161 
10 169 
10 177 
11 96 
11 107 
11 115 
11 120 
11 131 
11 139 
11 153 
11 164 
11 172 
11 177 
12 99 
12 110 
12 118 
12 123 
12 134 
12 142 
12 147 
12 158 
12 166 
12 177 
13 94 
13 102 
13 113 
13 127 
13 135 
13 146 
13 151 
13 159 
13 170 
13 177 
14 97 
14 105 
14 116 
14 121 
14 129 
14 140 
14 154 
14 162 
14 173 
14 177 
15 98 
15 106 
15 114 
15 122 
15 130 
15 138 
15 155 
15 163 
15 171 
15 177 
16 95 
16 103 
16 111 
16 128 
16 136 
16 144 
16 152 
16 160 
16 168 
16 177 
17 101 
17 109 
17 117 
17 125 
17 133 
17 141 
17 149 
17 157 
17 165 
17 177 
18 100 
18 108 
18 119 
18 124 
18 132 
18 143 
18 148 
18 156 
18 167 
18 177 
19 93 
19 103 
19 113 
19 123 
19 133 
19 143 
19 153 
19 163 
19 173 
19 180 
20 96 
20 106 
20 116 
20 126 
20 136 
20 146 
20 147 
20 157 
20 167 
20 180 
21 99 
21 109 
21 119 
21 120 
21 130 
21 140 
21 150 
21 160 
21 170 
21 180 
22 94 
22 104 
22 111 
22 124 
22 134 
22 141 
22 154 
22 164 
22 171 
22 180 
23 97 
23 107 
23 114 
23 127 
23 137 
23 144 
23 148 
23 158 
23 165 
23 180 
24 98 
24 105 
24 115 
24 128 
24 135 
24 145 
24 149 
24 156 
24 166 
24 180 
25 95 
25 102 
25 112 
25 125 
25 132 
25 142 
25 155 
25 162 
25 172 
25 180 
26 101 
26 108 
26 118 
26 122 
26 129 
26 139 
26 152 
26 159 
26 169 
26 180 
27 100 
27 110 
27 117 
27 121 
27 131 
27 138 
27 151 
27 161 
27 168 
27 180 
28 93 
28 110 
28 115 
28 122 
28 136 
28 141 
28 148 
28 162 
28 170 
28 175 
29 96 
29 104 
29 118 
29 125 
29 130 
29 144 
29 151 
29 156 
29 173 
29 175 
30 99 
30 107 
30 112 
30 128 
30 133 
30 138 
30 154 
30 159 
30 167 
30 175 
31 94 
31 108 
31 116 
31 120 
31 137 
31 142 
31 149 
31 163 
31 168 
31 175 
32 97 
32 102 
32 119 
32 123 
32 131 
32 145 
32 152 
32 157 
32 171 
32 175 
33 98 
33 103 
33 117 
33 124 
33 129 
33 146 
33 150 
33 158 
33 172 
33 175 
34 95 
34 109 
34 114 
34 121 
34 135 
34 143 
34 147 
34 164 
34 169 
34 175 
35 101 
35 106 
35 111 
35 127 
35 132 
35 140 
35 153 
35 161 
35 166 
35 175 
36 100 
36 105 
36 113 
36 126 
36 134 
36 139 
36 155 
36 160 
36 165 
36 175 
37 93 
37 109 
37 116 
37 128 
37 132 
37 139 
37 151 
37 158 
37 171 
37 178 
38 96 
38 103 
38 119 
38 122 
38 135 
38 142 
38 154 
38 161 
38 165 
38 178 
39 99 
39 106 
39 113 
39 125 
39 129 
39 145 
39 148 
39 164 
39 168 
39 178 
40 94 
40 110 
40 114 
40 126 
40 133 
40 140 
40 152 
40 156 
40 172 
40 178 
41 97 
41 104 
41 117 
41 120 
41 136 
41 143 
41 155 
41 159 
41 166 
41 178 
42 98 
42 102 
42 118 
42 121 
42 137 
42 141 
42 153 
42 160 
42 167 
42 178 
43 95 
43 108 
43 115 
43 127 
43 134 
43 138 
43 150 
43 157 
43 173 
43 178 
44 101 
44 105 
44 112 
44 124 
44 131 
44 144 
44 147 
44 163 
44 170 
44 178 
45 100 
45 107 
45 111 
45 123 
45 130 
45 146 
45 149 
45 162 
45 169 
45 178 
46 93 
46 105 
46 117 
46 127 
46 130 
46 142 
46 152 
46 164 
46 167 
46 179 
47 96 
47 108 
47 111 
47 121 
47 133 
47 145 
47 155 
47 158 
47 170 
47 179 
48 99 
48 102 
48 114 
48 124 
48 136 
48 139 
48 149 
48 161 
48 173 
48 179 
49 94 
49 106 
49 118 
49 128 
49 131 
49 143 
49 150 
49 162 
49 165 
49 179 
50 97 
50 109 
50 112 
50 122 
50 134 
50 146 
50 153 
50 156 
50 168 
50 179 
51 98 
51 110 
51 113 
51 120 
51 132 
51 144 
51 154 
51 157 
51 169 
51 179 
52 95 
52 107 
52 119 
52 126 
52 129 
52 141 
52 151 
52 163 
52 166 
52 179 
53 101 
53 104 
53 116 
53 123 
53 135 
53 138 
53 148 
53 160 
53 172 
53 179 
54 100 
54 103 
54 115 
54 125 
54 137 
54 140 
54 147 
54 159 
54 171 
54 179 
55 93 
55 106 
55 119 
55 121 
55 134 
55 144 
55 149 
55 159 
55 172 
55 176 
56 96 
56 109 
56 113 
56 124 
56 137 
56 138 
56 152 
56 162 
56 166 
56 176 
57 99 
57 103 
57 116 
57 127 
57 131 
57 141 
57 155 
57 156 
57 169 
57 176 
58 94 
58 107 
58 117 
58 122 
58 132 
58 145 
58 147 
58 160 
58 173 
58 176 
59 97 
59 110 
59 111 
59 125 
59 135 
59 139 
59 150 
59 163 
59 167 
59 176 
60 98 
60 108 
60 112 
60 123 
60 136 
60 140 
60 151 
60 164 
60 165 
60 176 
61 95 
61 105 
61 118 
61 120 
61 133 
61 146 
61 148 
61 161 
61 171 
61 176 
62 101 
62 102 
62 115 
62 126 
62 130 
62 143 
62 154 
62 158 
62 168 
62 176 
63 100 
63 104 
63 114 
63 128 
63 129 
63 142 
63 153 
63 157 
63 170 
63 176 
64 93 
64 107 
64 118 
64 124 
64 135 
64 140 
64 155 
64 157 
64 168 
64 182 
65 96 
65 110 
65 112 
65 127 
65 129 
65 143 
65 149 
65 160 
65 171 
65 182 
66 99 
66 104 
66 115 
66 121 
66 132 
66 146 
66 152 
66 163 
66 165 
66 182 
67 94 
67 105 
67 119 
67 125 
67 136 
67 138 
67 153 
67 158 
67 169 
67 182 
68 97 
68 108 
68 113 
68 128 
68 130 
68 141 
68 147 
68 161 
68 172 
68 182 
69 98 
69 109 
69 111 
69 126 
69 131 
69 142 
69 148 
69 159 
69 173 
69 182 
70 95 
70 106 
70 117 
70 123 
70 137 
70 139 
70 154 
70 156 
70 170 
70 182 
71 101 
71 103 
71 114 
71 120 
71 134 
71 145 
71 151 
71 162 
71 167 
71 182 
72 100 
72 102 
72 116 
72 122 
72 133 
72 144 
72 150 
72 164 
72 166 
72 182 
73 93 
73 108 
73 114 
73 125 
73 131 
73 146 
73 154 
73 160 
73 166 
73 181 
74 96 
74 102 
74 117 
74 128 
74 134 
74 140 
74 148 
74 163 
74 169 
74 181 
75 99 
75 105 
75 111 
75 122 
75 137 
75 143 
75 151 
75 157 
75 172 
75 181 
76 94 
76 109 
76 115 
76 123 
76 129 
76 144 
76 155 
76 161 
76 167 
76 181 
77 97 
77 103 
77 118 
77 126 
77 132 
77 138 
77 149 
77 164 
77 170 
77 181 
78 98 
78 104 
78 119 
78 127 
78 133 
78 139 
78 147 
78 162 
78 168 
78 181 
79 95 
79 110 
79 116 
79 124 
79 130 
79 145 
79 153 
79 159 
79 165 
79 181 
80 101 
80 107 
80 113 
80 121 
80 136 
80 142 
80 150 
80 156 
80 171 
80 181 
81 100 
81 106 
81 112 
81 120 
81 135 
81 141 
81 152 
81 158 
81 173 
81 181 
82 92 
82 93 
82 94 
82 95 
82 96 
82 97 
82 98 
82 99 
82 100 
82 101 
83 92 
83 102 
83 103 
83 104 
83 105 
83 106 
83 107 
83 108 
83 109 
83 110 
84 92 
84 111 
84 112 
84 113 
84 114 
84 115 
84 116 
84 117 
84 118 
84 119 
85 92 
85 120 
85 121 
85 122 
85 123 
85 124 
85 125 
85 126 
85 127 
85 128 
86 92 
86 129 
86 130 
86 131 
86 132 
86 133 
86 134 
86 135 
86 136 
86 137 
87 92 
87 138 
87 139 
87 140 
87 141 
87 142 
87 143 
87 144 
87 145 
87 146 
88 92 
88 147 
88 148 
88 149 
88 150 
88 151 
88 152 
88 153 
88 154 
88 155 
89 92 
89 156 
89 157 
89 158 
89 159 
89 160 
89 161 
89 162 
89 163 
89 164 
90 92 
90 165 
90 166 
90 167 
90 168 
90 169 
90 170 
90 171 
90 172 
90 173 
91 92 
91 174 
91 175 
91 176 
91 177 
91 178 
91 179 
91 180 
91 181 
91 182 
